5458449843158718225505,9,1,2,09,9,1,2,02,1,1,2,012,5,1,2,011,10,1,2,02,10,1,2,013,5,1,2,013,12,1,2,013,3,1,2,012,14,1,2,010,9,1,2,08,12,1,2,014,14,1,2,010,8,1,2,07,7,1,2,05,10,1,2,014,13,1,2,015,15,1,2,09,14,1,2,03,15,1,2,013,5,1,2,03,8,1,2,010,4,1,2,010,10,1,2,04,2,1,2,02,1,1,2,09,8,1,2,09,6,1,2,02,15,1,2,02,14,1,2,01,9,1,2,02,5,1,2,011,13,1,2,08,6,1,2,011,14,1,2,02,2,1,2,05,6,1,2,013,15,1,2,013,4,1,2,013,2,1,2,09,10,1,2,014,12,1,2,08,6,1,2,015,10,1,2,07,15,1,2,03,10,1,2,010,10,1,2,012,9,1,2,09,15,1,2,014,6,1,2,0